#************************************************************************************
#*                   Generated by cif2cell 2.0.0 2023-04-12 15:49                   *
#*  T. Bjorkman, Comp. Phys. Commun. 182, 1183-1186 (2011). Please cite generously. *
#*                                                                                  *
#*                                    None   ()                                     *
#*  Preston, G.D., Philosophical Magazine, Serie 6 (1901-1925) 5, 1207-1226 (1928)  *
#************************************************************************************

%BLOCK LATTICE_CART
ang    # angstrom units
   6.314500000000000   0.000000000000000   0.000000000000000
   0.000000000000000   6.314500000000000   0.000000000000000
   0.000000000000000   0.000000000000000   6.314500000000000
%ENDBLOCK LATTICE_CART

KPOINT_MP_SPACING : 0.05

%BLOCK POSITIONS_FRAC
ANG
Mn   0.061000000000000   0.061000000000000   0.061000000000000 Spin = 5/2 0 0 MIXTURE:(   1  0.666667)
Mn   0.811000000000000   0.311000000000000   0.189000000000000 Spin = 5/2 0 0
Mn   0.939000000000000   0.561000000000000   0.439000000000000 Spin = 5/2 0 0
Mn   0.439000000000000   0.939000000000000   0.561000000000000 Spin = 5/2 0 0
Mn   0.561000000000000   0.439000000000000   0.939000000000000 Spin = 5/2 0 0
Mn   0.311000000000000   0.189000000000000   0.811000000000000 Spin = 5/2 0 0
Mn   0.689000000000000   0.689000000000000   0.689000000000000 Spin = 5/2 0 0
Mn   0.189000000000000   0.811000000000000   0.311000000000000 Spin = 5/2 0 0
Mn   0.125000000000000   0.206000000000000   0.456000000000000 Spin = 5/2 0 0
Mn   0.875000000000000   0.706000000000000   0.044000000000000 Spin = 5/2 0 0
Mn   0.544000000000000   0.625000000000000   0.294000000000000 Spin = 5/2 0 0
Mn   0.294000000000000   0.544000000000000   0.625000000000000 Spin = 5/2 0 0
Mn   0.456000000000000   0.125000000000000   0.206000000000000 Spin = 5/2 0 0
Mn   0.206000000000000   0.456000000000000   0.125000000000000 Spin = 5/2 0 0
Mn   0.625000000000000   0.294000000000000   0.544000000000000 Spin = 5/2 0 0
Mn   0.794000000000000   0.956000000000000   0.375000000000000 Spin = 5/2 0 0
Mn   0.375000000000000   0.794000000000000   0.956000000000000 Spin = 5/2 0 0
Mn   0.044000000000000   0.875000000000000   0.706000000000000 Spin = 5/2 0 0
Mn   0.956000000000000   0.375000000000000   0.794000000000000 Spin = 5/2 0 0
Mn   0.706000000000000   0.044000000000000   0.875000000000000 Spin = 5/2 0 0
%ENDBLOCK POSITIONS_FRAC

# Commented out pseudopotential block for easy editing
#%BLOCK SPECIES_POT
# Mn  Mn_00.usp
#%ENDBLOCK SPECIES_POT

# %BLOCK SYMMETRY_OPS
# # Symm. op. 1
#   1.000000000000000   0.000000000000000   0.000000000000000
#   0.000000000000000   1.000000000000000   0.000000000000000
#   0.000000000000000   0.000000000000000   1.000000000000000
#   0.000000000000000   0.000000000000000   0.000000000000000
# # Symm. op. 2
#   0.000000000000000   1.000000000000000   0.000000000000000
#   0.000000000000000   0.000000000000000   1.000000000000000
#   1.000000000000000   0.000000000000000   0.000000000000000
#   0.000000000000000   0.000000000000000   0.000000000000000
# # Symm. op. 3
#   0.000000000000000   0.000000000000000   1.000000000000000
#   1.000000000000000   0.000000000000000   0.000000000000000
#   0.000000000000000   1.000000000000000   0.000000000000000
#   0.000000000000000   0.000000000000000   0.000000000000000
# # Symm. op. 4
#   1.000000000000000   0.000000000000000   0.000000000000000
#   0.000000000000000  -1.000000000000000   0.000000000000000
#   0.000000000000000   0.000000000000000  -1.000000000000000
#   0.500000000000000   0.500000000000000   0.000000000000000
# # Symm. op. 5
#  -1.000000000000000   0.000000000000000   0.000000000000000
#   0.000000000000000   1.000000000000000   0.000000000000000
#   0.000000000000000   0.000000000000000  -1.000000000000000
#   0.000000000000000   0.500000000000000   0.500000000000000
# # Symm. op. 6
#  -1.000000000000000   0.000000000000000   0.000000000000000
#   0.000000000000000  -1.000000000000000   0.000000000000000
#   0.000000000000000   0.000000000000000   1.000000000000000
#   0.500000000000000   0.000000000000000   0.500000000000000
# # Symm. op. 7
#   0.000000000000000   1.000000000000000   0.000000000000000
#   0.000000000000000   0.000000000000000  -1.000000000000000
#  -1.000000000000000   0.000000000000000   0.000000000000000
#   0.000000000000000   0.500000000000000   0.500000000000000
# # Symm. op. 8
#   0.000000000000000   0.000000000000000   1.000000000000000
#  -1.000000000000000   0.000000000000000   0.000000000000000
#   0.000000000000000  -1.000000000000000   0.000000000000000
#   0.500000000000000   0.000000000000000   0.500000000000000
# # Symm. op. 9
#   0.000000000000000   0.000000000000000  -1.000000000000000
#  -1.000000000000000   0.000000000000000   0.000000000000000
#   0.000000000000000   1.000000000000000   0.000000000000000
#   0.000000000000000   0.500000000000000   0.500000000000000
# # Symm. op. 10
#   0.000000000000000  -1.000000000000000   0.000000000000000
#   0.000000000000000   0.000000000000000   1.000000000000000
#  -1.000000000000000   0.000000000000000   0.000000000000000
#   0.500000000000000   0.000000000000000   0.500000000000000
# # Symm. op. 11
#   0.000000000000000  -1.000000000000000   0.000000000000000
#   0.000000000000000   0.000000000000000  -1.000000000000000
#   1.000000000000000   0.000000000000000   0.000000000000000
#   0.500000000000000   0.500000000000000   0.000000000000000
# # Symm. op. 12
#   0.000000000000000   0.000000000000000  -1.000000000000000
#   1.000000000000000   0.000000000000000   0.000000000000000
#   0.000000000000000  -1.000000000000000   0.000000000000000
#   0.500000000000000   0.500000000000000   0.000000000000000
# # Symm. op. 13
#   1.000000000000000   0.000000000000000   0.000000000000000
#   0.000000000000000   0.000000000000000  -1.000000000000000
#   0.000000000000000   1.000000000000000   0.000000000000000
#   0.750000000000000   0.250000000000000   0.250000000000000
# # Symm. op. 14
#   0.000000000000000  -1.000000000000000   0.000000000000000
#   1.000000000000000   0.000000000000000   0.000000000000000
#   0.000000000000000   0.000000000000000   1.000000000000000
#   0.250000000000000   0.250000000000000   0.750000000000000
# # Symm. op. 15
#  -1.000000000000000   0.000000000000000   0.000000000000000
#   0.000000000000000   0.000000000000000   1.000000000000000
#   0.000000000000000   1.000000000000000   0.000000000000000
#   0.250000000000000   0.750000000000000   0.250000000000000
# # Symm. op. 16
#   0.000000000000000   0.000000000000000  -1.000000000000000
#   0.000000000000000   1.000000000000000   0.000000000000000
#   1.000000000000000   0.000000000000000   0.000000000000000
#   0.750000000000000   0.250000000000000   0.250000000000000
# # Symm. op. 17
#   1.000000000000000   0.000000000000000   0.000000000000000
#   0.000000000000000   0.000000000000000   1.000000000000000
#   0.000000000000000  -1.000000000000000   0.000000000000000
#   0.250000000000000   0.250000000000000   0.750000000000000
# # Symm. op. 18
#   0.000000000000000   0.000000000000000   1.000000000000000
#   0.000000000000000  -1.000000000000000   0.000000000000000
#   1.000000000000000   0.000000000000000   0.000000000000000
#   0.250000000000000   0.250000000000000   0.750000000000000
# # Symm. op. 19
#   0.000000000000000   1.000000000000000   0.000000000000000
#  -1.000000000000000   0.000000000000000   0.000000000000000
#   0.000000000000000   0.000000000000000   1.000000000000000
#   0.250000000000000   0.750000000000000   0.250000000000000
# # Symm. op. 20
#   0.000000000000000   0.000000000000000   1.000000000000000
#   0.000000000000000   1.000000000000000   0.000000000000000
#  -1.000000000000000   0.000000000000000   0.000000000000000
#   0.250000000000000   0.750000000000000   0.250000000000000
# # Symm. op. 21
#   0.000000000000000   1.000000000000000   0.000000000000000
#   1.000000000000000   0.000000000000000   0.000000000000000
#   0.000000000000000   0.000000000000000  -1.000000000000000
#   0.750000000000000   0.250000000000000   0.250000000000000
# # Symm. op. 22
#   0.000000000000000  -1.000000000000000   0.000000000000000
#  -1.000000000000000   0.000000000000000   0.000000000000000
#   0.000000000000000   0.000000000000000  -1.000000000000000
#   0.750000000000000   0.750000000000000   0.750000000000000
# # Symm. op. 23
#  -1.000000000000000   0.000000000000000   0.000000000000000
#   0.000000000000000   0.000000000000000  -1.000000000000000
#   0.000000000000000  -1.000000000000000   0.000000000000000
#   0.750000000000000   0.750000000000000   0.750000000000000
# # Symm. op. 24
#   0.000000000000000   0.000000000000000  -1.000000000000000
#   0.000000000000000  -1.000000000000000   0.000000000000000
#  -1.000000000000000   0.000000000000000   0.000000000000000
#   0.750000000000000   0.750000000000000   0.750000000000000
# %ENDBLOCK SYMMETRY_OPS
