%BLOCK LATTICE_CART
17.395297  0.000000  0.000000
0.000000 17.395297  0.000000
0.000000  0.000000 17.395297
%ENDBLOCK LATTICE_CART

%BLOCK POSITIONS_ABS
Ar  4.023973  2.257202  2.476523
Ar  4.292150  0.741938 -1.542184
Ar  0.834362  4.894828  5.031917
Ar -7.896037 -0.914764 -0.186325
Ar -5.921120 -1.280009  5.918613
%ENDBLOCK POSITIONS_ABS

FIX_ALL_CELL: TRUE
KPOINT_MP_SPACING: 1.0 1/ang
